17	4
30	41	38	35	
0	0	0	0	0	3	2	3	4	
4	1	2	5	9	2	8	17	
5	5	9	2	9	2	6	11	
3	6	8	1	9	2	5	17	
2	5	8	3	9	3	10	12	13	
200	5	7	4	6	3	7	9	14	
25	3	2	8	6	2	10	17	
250	4	10	1	6	2	17	17	
250	2	1	9	2	3	17	17	17	
225	8	4	8	9	2	15	17	
225	2	6	10	2	3	17	17	17	
175	7	6	8	2	2	15	17	
10	10	9	8	4	3	17	17	17	
8	2	2	2	10	3	16	17	17	
10	2	2	10	6	2	17	17	
2	10	8	4	3	2	17	17	
0	0	0	0	0	0	
